language ESSENCE' 1.0

letting n_courses be 127
letting n_periods be 28
letting prerequisite_RelationAsSet_Explicit_1 be
        [1, 1, 1, 1, 1, 1, 1, 1, 2, 2, 2, 2, 2, 2, 2, 2, 2, 3, 3, 3, 3, 3, 3, 3, 3, 3, 3, 3, 3, 3, 3, 4, 4, 4, 4, 4, 4,
         4, 4, 4, 5, 5, 5, 5, 5, 5, 5, 5, 5, 6, 6, 6, 6, 6, 6, 6, 6, 6, 6, 7, 7, 7, 7, 7, 7, 7, 7, 8, 8, 8, 8, 8, 8, 8,
         8, 8, 8, 8, 9, 9, 9, 9, 9, 9, 9, 9, 10, 10, 10, 10, 10, 10, 10, 10, 10, 10, 10, 10, 10, 10, 10, 11, 11, 11, 11,
         11, 11, 12, 12, 12, 12, 12, 12, 12, 12, 12, 12, 12, 13, 13, 13, 13, 13, 13, 13, 13, 13, 13, 13, 14, 14, 14, 14,
         14, 14, 14, 14, 14, 14, 15, 15, 15, 15, 15, 15, 16, 16, 16, 16, 16, 16, 16, 17, 17, 17, 17, 17, 17, 17, 17, 17,
         17, 17, 17, 18, 18, 18, 18, 18, 18, 18, 18, 18, 18, 18, 18, 18, 18, 18, 18, 19, 19, 19, 19, 19, 19, 19, 19, 19,
         19, 19, 19, 19, 19, 19, 20, 20, 20, 20, 20, 20, 20, 20, 20, 20, 20, 21, 21, 21, 21, 21, 21, 21, 21, 21, 21, 22,
         22, 22, 22, 22, 22, 22, 22, 23, 23, 23, 23, 23, 23, 23, 23, 23, 24, 24, 24, 24, 24, 24, 24, 24, 24, 24, 25, 25,
         25, 25, 25, 25, 25, 25, 26, 26, 26, 26, 26, 26, 26, 26, 26, 26, 27, 27, 27, 27, 27, 27, 27, 27, 27, 27, 28, 28,
         28, 28, 28, 28, 28, 28, 28, 28, 28, 28, 28, 29, 29, 29, 29, 29, 29, 29, 29, 29, 29, 29, 29, 29, 29, 30, 30, 30,
         30, 30, 30, 30, 30, 30, 30, 31, 31, 31, 31, 31, 31, 31, 31, 31, 31, 32, 32, 32, 32, 32, 32, 32, 32, 32, 32, 32,
         32, 32, 33, 33, 33, 33, 33, 33, 33, 33, 33, 33, 34, 34, 34, 34, 34, 34, 34, 34, 34, 34, 34, 34, 34, 34, 34, 34,
         34, 34, 34, 35, 35, 35, 35, 35, 35, 35, 35, 35, 35, 35, 36, 36, 36, 36, 36, 36, 36, 36, 37, 37, 37, 37, 37, 37,
         37, 37, 38, 38, 39, 39, 39, 39, 39, 39, 39, 39, 39, 39, 39, 39, 40, 40, 40, 40, 40, 40, 40, 40, 41, 41, 41, 41,
         41, 41, 41, 41, 41, 41, 42, 42, 42, 42, 42, 42, 42, 43, 43, 43, 43, 43, 43, 43, 43, 44, 44, 44, 44, 44, 44, 45,
         45, 45, 45, 46, 46, 46, 46, 46, 46, 47, 47, 47, 47, 47, 48, 48, 48, 48, 48, 48, 48, 49, 49, 49, 49, 49, 50, 50,
         50, 50, 50, 50, 50, 50, 51, 51, 51, 51, 51, 51, 51, 51, 51, 52, 52, 52, 52, 52, 52, 53, 53, 53, 53, 53, 53, 53,
         53, 54, 54, 54, 54, 54, 54, 54, 54, 54, 55, 55, 55, 55, 55, 55, 55, 55, 56, 56, 56, 56, 56, 57, 57, 57, 57, 57,
         57, 57, 57, 57, 58, 58, 58, 58, 58, 59, 59, 59, 59, 59, 59, 60, 60, 60, 60, 61, 61, 61, 61, 61, 61, 61, 61, 61,
         61, 62, 62, 62, 62, 62, 62, 62, 62, 62, 63, 63, 63, 63, 63, 63, 64, 64, 64, 64, 65, 65, 65, 65, 65, 65, 65, 65,
         65, 65, 65, 66, 66, 66, 66, 66, 66, 66, 66, 67, 67, 67, 67, 67, 67, 68, 68, 68, 68, 68, 68, 69, 69, 69, 69, 69,
         69, 70, 70, 70, 70, 70, 70, 70, 71, 71, 71, 71, 71, 71, 71, 71, 71, 72, 72, 72, 72, 72, 72, 73, 73, 73, 73, 73,
         73, 73, 73, 73, 74, 74, 74, 74, 74, 74, 74, 74, 74, 74, 74, 74, 75, 75, 75, 75, 76, 76, 76, 76, 76, 76, 77, 77,
         77, 77, 77, 77, 77, 77, 77, 77, 78, 78, 78, 78, 78, 78, 78, 78, 78, 78, 78, 79, 79, 79, 79, 79, 79, 79, 79, 80,
         80, 80, 80, 80, 80, 80, 80, 81, 81, 81, 81, 81, 81, 82, 82, 82, 82, 82, 82, 82, 82, 82, 83, 83, 83, 83, 83, 84,
         84, 84, 84, 84, 84, 84, 85, 85, 85, 86, 86, 86, 86, 86, 86, 86, 86, 87, 87, 87, 87, 87, 87, 87, 87, 87, 87, 87;
             int(1..749)]
letting prerequisite_RelationAsSet_Explicit_2 be
        [37, 45, 50, 55, 56, 61, 68, 78, 47, 48, 51, 53, 64, 65, 66, 83, 84, 39, 41, 44, 47, 61, 66, 68, 71, 73, 78, 79,
         81, 86, 87, 47, 51, 52, 53, 55, 58, 60, 72, 80, 39, 40, 47, 52, 54, 76, 81, 86, 87, 40, 48, 49, 53, 61, 65, 66,
         73, 80, 82, 44, 49, 58, 62, 67, 68, 74, 85, 50, 52, 56, 58, 60, 63, 64, 66, 76, 80, 86, 46, 47, 48, 51, 52, 54,
         66, 83, 39, 40, 41, 45, 47, 49, 50, 56, 60, 67, 69, 76, 82, 84, 86, 37, 55, 58, 60, 83, 84, 37, 38, 46, 53, 61,
         69, 77, 79, 81, 83, 85, 38, 41, 42, 52, 56, 61, 63, 65, 67, 76, 85, 43, 46, 50, 60, 63, 64, 67, 70, 74, 79, 43,
         57, 65, 71, 77, 87, 42, 49, 52, 57, 59, 68, 75, 42, 46, 52, 57, 58, 64, 68, 72, 75, 80, 81, 86, 39, 41, 48, 52,
         55, 63, 64, 68, 71, 72, 77, 81, 82, 83, 85, 87, 42, 45, 46, 52, 62, 63, 64, 66, 69, 71, 75, 76, 77, 81, 84, 39,
         40, 42, 51, 59, 61, 69, 73, 85, 86, 87, 39, 43, 44, 45, 48, 65, 68, 77, 83, 87, 39, 58, 60, 64, 69, 77, 80, 85,
         42, 43, 44, 55, 56, 66, 73, 81, 85, 55, 63, 65, 70, 71, 73, 75, 78, 80, 83, 49, 57, 61, 64, 66, 68, 82, 87, 42,
         46, 47, 51, 54, 72, 77, 78, 82, 83, 42, 50, 59, 61, 64, 69, 72, 76, 79, 82, 37, 40, 42, 47, 48, 52, 54, 63, 66,
         68, 70, 71, 74, 38, 43, 44, 47, 54, 56, 57, 60, 63, 64, 74, 79, 80, 84, 41, 42, 43, 49, 63, 68, 70, 79, 80, 86,
         40, 42, 45, 65, 71, 73, 78, 80, 84, 87, 38, 39, 41, 42, 44, 47, 58, 64, 65, 76, 81, 84, 85, 39, 42, 48, 59, 68,
         69, 72, 74, 78, 87, 37, 38, 39, 48, 50, 53, 56, 58, 61, 62, 63, 64, 69, 71, 77, 81, 82, 86, 87, 44, 51, 57, 58,
         62, 68, 70, 76, 82, 85, 87, 44, 58, 61, 70, 72, 78, 82, 85, 92, 94, 95, 106, 116, 121, 122, 126, 89, 99, 91,
         93, 94, 96, 97, 105, 106, 107, 109, 112, 118, 125, 90, 98, 99, 104, 106, 111, 120, 124, 93, 94, 99, 102, 110,
         114, 119, 122, 126, 127, 90, 95, 104, 106, 117, 119, 125, 89, 91, 92, 101, 102, 108, 122, 124, 93, 101, 102,
         108, 114, 126, 112, 113, 124, 125, 93, 96, 98, 101, 120, 127, 96, 103, 116, 122, 123, 108, 111, 112, 114, 118,
         119, 125, 91, 92, 95, 100, 124, 93, 94, 98, 99, 104, 109, 112, 124, 89, 90, 92, 94, 98, 109, 120, 121, 122, 90,
         94, 95, 99, 107, 109, 94, 104, 105, 113, 114, 121, 123, 126, 88, 90, 92, 96, 100, 107, 112, 118, 127, 94, 101,
         104, 106, 108, 111, 112, 127, 94, 95, 118, 122, 124, 91, 93, 107, 108, 109, 112, 114, 115, 124, 101, 103, 111,
         112, 127, 91, 95, 96, 101, 107, 112, 93, 99, 105, 113, 89, 91, 95, 102, 103, 107, 115, 120, 121, 123, 96, 100,
         105, 106, 111, 113, 115, 123, 125, 92, 101, 106, 111, 117, 121, 92, 100, 113, 123, 93, 94, 103, 105, 107, 111,
         114, 117, 122, 123, 127, 88, 89, 90, 97, 98, 101, 102, 115, 101, 105, 114, 124, 125, 126, 96, 97, 101, 109,
         119, 124, 90, 94, 108, 109, 118, 122, 114, 116, 117, 118, 124, 125, 127, 96, 98, 105, 107, 108, 116, 118, 123,
         124, 94, 95, 99, 101, 123, 125, 90, 91, 95, 98, 103, 117, 120, 126, 127, 89, 92, 95, 97, 99, 100, 112, 114,
         116, 123, 126, 127, 90, 93, 94, 110, 93, 94, 102, 113, 116, 120, 90, 95, 100, 103, 106, 109, 112, 114, 116,
         126, 92, 99, 100, 105, 106, 108, 113, 115, 119, 120, 124, 91, 93, 102, 106, 108, 110, 111, 116, 90, 92, 95,
         106, 113, 118, 120, 123, 89, 103, 106, 108, 112, 115, 89, 91, 101, 103, 116, 120, 121, 124, 125, 89, 92, 95,
         109, 115, 88, 96, 108, 110, 112, 115, 117, 91, 100, 101, 90, 99, 108, 114, 115, 117, 118, 120, 97, 98, 99, 101,
         107, 110, 111, 116, 122, 124, 126;
             int(1..749)]
letting course_load_Function1D be
        [6, 6, 7, 7, 7, 5, 7, 5, 5, 5, 5, 5, 6, 6, 7, 7, 6, 6, 5, 5, 6, 5, 6, 6, 5, 7, 7, 5, 6, 7, 7, 6, 6, 6, 7, 6, 5,
         5, 5, 5, 7, 5, 6, 5, 5, 5, 5, 5, 7, 6, 6, 6, 5, 5, 7, 6, 5, 5, 5, 5, 5, 6, 7, 5, 5, 7, 6, 6, 6, 7, 6, 7, 5, 6,
         7, 5, 6, 7, 6, 6, 6, 5, 6, 7, 6, 6, 5, 5, 5, 5, 6, 6, 6, 7, 7, 5, 6, 5, 6, 7, 6, 6, 6, 5, 6, 6, 7, 5, 6, 6, 5,
         6, 6, 5, 5, 6, 5, 6, 5, 6, 5, 6, 7, 6, 7, 6, 6;
             int(1..127)]
letting load_per_period_ub be 35
letting load_per_period_lb be 4
letting courses_per_period_ub be 5
letting courses_per_period_lb be 4
letting fin1 be 749
letting fin2 be 127
letting fin3 be 7
